nN = 10;
nR = 40;
nH = 2;

a = [[24, 18, 17, 19, 19, 24, 20, 23, 15, 25, 21, 18, 18, 18, 19, 20, 25, 15, 23, 21, 25, 21, 17, 21, 22, 19, 20, 17, 18, 19, 16, 22, 20, 21, 21, 16, 24, 16, 20, 24], [16, 16, 23, 21, 25, 20, 16, 25, 20, 19, 24, 17, 25, 24, 15, 18, 25, 20, 23, 15, 16, 19, 17, 16, 15, 16, 18, 19, 20, 18, 21, 21, 17, 22, 23, 25, 22, 17, 16, 19], [25, 19, 20, 25, 20, 20, 24, 20, 24, 20, 23, 21, 18, 20, 18, 20, 22, 22, 20, 15, 21, 17, 22, 20, 24, 24, 15, 21, 15, 25, 18, 21, 24, 17, 20, 19, 20, 18, 22, 20], [21, 24, 18, 18, 17, 17, 20, 17, 21, 20, 18, 18, 22, 23, 19, 25, 19, 21, 23, 20, 17, 21, 22, 22, 18, 22, 16, 16, 19, 23, 15, 21, 17, 18, 22, 17, 16, 21, 18, 19], [24, 16, 19, 15, 23, 22, 17, 23, 25, 16, 22, 17, 21, 22, 22, 16, 20, 23, 21, 25, 18, 16, 25, 22, 18, 21, 22, 24, 19, 19, 21, 20, 22, 25, 25, 20, 25, 22, 15, 22], [19, 25, 18, 18, 24, 22, 16, 22, 21, 19, 15, 18, 16, 22, 25, 25, 23, 16, 20, 18, 15, 23, 19, 16, 19, 20, 21, 17, 23, 21, 18, 16, 21, 18, 20, 16, 16, 21, 16, 16], [18, 16, 24, 18, 17, 20, 19, 24, 17, 18, 24, 18, 24, 22, 16, 19, 23, 22, 18, 21, 15, 15, 17, 24, 18, 20, 23, 21, 23, 16, 19, 24, 19, 15, 22, 20, 25, 20, 22, 17], [25, 24, 21, 15, 20, 22, 17, 17, 16, 20, 24, 15, 15, 16, 22, 17, 22, 22, 17, 20, 22, 20, 16, 24, 17, 15, 18, 23, 24, 22, 21, 21, 18, 21, 15, 20, 18, 18, 16, 20], [15, 18, 18, 17, 21, 23, 24, 24, 18, 24, 18, 19, 16, 25, 19, 17, 19, 24, 15, 19, 19, 19, 22, 24, 15, 21, 18, 19, 21, 16, 20, 25, 24, 24, 21, 16, 23, 25, 24, 22], [20, 24, 18, 21, 20, 23, 25, 17, 20, 15, 21, 25, 23, 16, 24, 17, 17, 23, 25, 20, 21, 23, 22, 21, 17, 19, 18, 23, 20, 17, 17, 20, 23, 23, 16, 25, 21, 19, 22, 18]];
c = [[[0, 0, 0, 0, 0, 0, 0, 0, 0, 0, 0, 0, 0, 0, 0, 0, 0, 0, 0, 0, 0, 0, 0, 0, 0, 0, 0, 0, 0, 0, 0, 0, 0, 0, 0, 0, 0, 0, 0, 0], [40, 32, 37, 50, 46, 31, 32, 36, 42, 30, 41, 43, 38, 43, 40, 37, 46, 31, 49, 43, 35, 41, 46, 36, 39, 45, 48, 33, 46, 33, 47, 33, 47, 38, 43, 41, 48, 31, 41, 36], [46, 46, 39, 40, 43, 33, 45, 42, 31, 44, 34, 36, 33, 39, 46, 45, 42, 41, 47, 43, 47, 33, 49, 43, 31, 46, 46, 43, 39, 32, 40, 32, 50, 30, 50, 31, 38, 37, 50, 32], [33, 31, 34, 37, 37, 46, 44, 49, 45, 36, 36, 44, 50, 35, 30, 33, 48, 35, 34, 31, 50, 44, 31, 35, 41, 31, 42, 45, 41, 41, 45, 44, 37, 44, 36, 36, 47, 50, 32, 34], [44, 44, 46, 46, 34, 31, 44, 31, 35, 41, 45, 45, 48, 46, 33, 36, 41, 44, 30, 47, 34, 30, 33, 48, 34, 31, 45, 50, 46, 45, 36, 48, 30, 45, 41, 42, 43, 41, 31, 49], [43, 30, 50, 50, 30, 38, 32, 49, 50, 38, 46, 50, 32, 46, 47, 32, 38, 41, 39, 40, 46, 43, 42, 36, 41, 49, 30, 40, 31, 31, 41, 31, 49, 42, 43, 49, 36, 43, 46, 34], [50, 31, 39, 38, 33, 37, 47, 38, 46, 45, 41, 30, 41, 41, 42, 49, 50, 48, 46, 44, 36, 47, 31, 42, 35, 34, 46, 46, 50, 43, 40, 40, 41, 39, 35, 43, 44, 37, 31, 47], [41, 40, 49, 43, 49, 43, 43, 33, 35, 41, 30, 37, 42, 32, 48, 48, 35, 38, 41, 30, 38, 45, 44, 43, 48, 30, 33, 44, 50, 41, 45, 41, 46, 34, 46, 46, 31, 47, 39, 38], [40, 45, 49, 40, 47, 41, 45, 35, 50, 46, 30, 47, 32, 43, 35, 49, 38, 39, 46, 34, 47, 30, 32, 47, 42, 45, 44, 36, 30, 31, 47, 40, 46, 49, 43, 37, 38, 46, 39, 48], [30, 48, 47, 30, 34, 36, 41, 45, 49, 43, 40, 31, 31, 34, 38, 35, 49, 48, 44, 36, 34, 36, 35, 49, 34, 38, 38, 31, 50, 33, 45, 30, 43, 46, 33, 43, 37, 30, 31, 47]], [[0, 0, 0, 0, 0, 0, 0, 0, 0, 0, 0, 0, 0, 0, 0, 0, 0, 0, 0, 0, 0, 0, 0, 0, 0, 0, 0, 0, 0, 0, 0, 0, 0, 0, 0, 0, 0, 0, 0, 0], [0, 0, 0, 0, 0, 0, 0, 0, 0, 0, 0, 0, 0, 0, 0, 0, 0, 0, 0, 0, 0, 0, 0, 0, 0, 0, 0, 0, 0, 0, 0, 0, 0, 0, 0, 0, 0, 0, 0, 0], [35, 40, 30, 46, 43, 44, 36, 34, 44, 36, 43, 37, 48, 42, 42, 44, 30, 31, 48, 37, 42, 34, 43, 34, 32, 46, 38, 44, 45, 44, 49, 43, 41, 43, 34, 36, 46, 34, 31, 35], [35, 49, 46, 47, 47, 50, 30, 41, 50, 46, 34, 43, 30, 30, 34, 47, 45, 45, 46, 37, 45, 39, 32, 47, 38, 38, 50, 48, 42, 36, 40, 49, 45, 35, 44, 49, 43, 44, 32, 38], [46, 30, 48, 39, 35, 45, 46, 46, 44, 45, 31, 39, 45, 48, 40, 42, 38, 33, 41, 40, 41, 42, 34, 30, 47, 40, 46, 42, 30, 37, 49, 33, 48, 48, 36, 40, 31, 44, 43, 35], [31, 44, 47, 48, 41, 34, 47, 42, 43, 36, 36, 39, 50, 45, 34, 49, 37, 39, 33, 45, 34, 41, 31, 49, 50, 44, 48, 34, 39, 38, 46, 44, 40, 44, 30, 41, 45, 41, 38, 43], [41, 43, 40, 42, 30, 38, 33, 49, 31, 30, 43, 40, 31, 49, 37, 41, 48, 38, 32, 34, 50, 36, 46, 49, 33, 40, 31, 46, 43, 44, 33, 49, 36, 47, 38, 40, 49, 46, 35, 40], [42, 33, 38, 45, 46, 32, 37, 33, 31, 35, 41, 47, 30, 42, 33, 34, 49, 34, 42, 34, 41, 46, 33, 50, 40, 32, 35, 50, 45, 31, 35, 49, 50, 46, 42, 41, 44, 42, 33, 30], [30, 45, 43, 37, 34, 39, 46, 50, 50, 33, 41, 33, 34, 48, 38, 49, 33, 39, 41, 41, 37, 46, 31, 32, 43, 42, 33, 43, 47, 49, 50, 35, 49, 48, 35, 44, 32, 35, 37, 47], [42, 41, 42, 50, 37, 43, 31, 43, 40, 50, 30, 38, 49, 49, 32, 43, 45, 45, 44, 50, 34, 40, 46, 42, 40, 30, 30, 41, 49, 30, 31, 30, 34, 42, 47, 39, 48, 34, 32, 50]], [[0, 0, 0, 0, 0, 0, 0, 0, 0, 0, 0, 0, 0, 0, 0, 0, 0, 0, 0, 0, 0, 0, 0, 0, 0, 0, 0, 0, 0, 0, 0, 0, 0, 0, 0, 0, 0, 0, 0, 0], [0, 0, 0, 0, 0, 0, 0, 0, 0, 0, 0, 0, 0, 0, 0, 0, 0, 0, 0, 0, 0, 0, 0, 0, 0, 0, 0, 0, 0, 0, 0, 0, 0, 0, 0, 0, 0, 0, 0, 0], [0, 0, 0, 0, 0, 0, 0, 0, 0, 0, 0, 0, 0, 0, 0, 0, 0, 0, 0, 0, 0, 0, 0, 0, 0, 0, 0, 0, 0, 0, 0, 0, 0, 0, 0, 0, 0, 0, 0, 0], [39, 45, 43, 37, 48, 46, 33, 44, 32, 49, 47, 45, 39, 35, 40, 44, 36, 50, 45, 32, 32, 45, 43, 35, 50, 32, 42, 31, 31, 47, 30, 41, 39, 35, 47, 39, 34, 35, 39, 35], [46, 30, 46, 48, 49, 50, 41, 50, 44, 44, 42, 48, 49, 31, 43, 35, 41, 39, 33, 33, 33, 43, 40, 41, 47, 34, 32, 38, 39, 42, 37, 31, 49, 30, 44, 38, 45, 47, 43, 36], [50, 49, 33, 42, 33, 40, 50, 50, 46, 44, 39, 44, 44, 50, 30, 41, 30, 34, 39, 46, 34, 39, 46, 32, 41, 49, 33, 50, 40, 31, 31, 30, 35, 43, 38, 31, 49, 40, 33, 32], [45, 43, 45, 49, 37, 50, 41, 47, 32, 40, 40, 45, 37, 50, 31, 44, 43, 32, 45, 47, 45, 49, 39, 43, 38, 47, 35, 31, 39, 37, 40, 43, 48, 47, 30, 49, 35, 43, 39, 50], [41, 37, 41, 37, 46, 37, 43, 39, 30, 48, 49, 35, 47, 38, 50, 39, 41, 42, 43, 37, 34, 33, 34, 48, 30, 49, 46, 40, 50, 38, 35, 46, 33, 38, 44, 38, 45, 40, 43, 48], [39, 34, 46, 33, 42, 39, 43, 42, 34, 31, 36, 39, 37, 46, 42, 34, 47, 38, 42, 40, 30, 46, 40, 32, 30, 35, 33, 50, 50, 50, 50, 34, 41, 37, 47, 43, 38, 30, 32, 44], [41, 36, 33, 41, 47, 47, 30, 42, 41, 49, 40, 46, 37, 40, 39, 50, 36, 31, 30, 46, 32, 31, 43, 45, 30, 34, 40, 46, 36, 47, 31, 39, 45, 30, 37, 49, 44, 32, 36, 50]], [[0, 0, 0, 0, 0, 0, 0, 0, 0, 0, 0, 0, 0, 0, 0, 0, 0, 0, 0, 0, 0, 0, 0, 0, 0, 0, 0, 0, 0, 0, 0, 0, 0, 0, 0, 0, 0, 0, 0, 0], [0, 0, 0, 0, 0, 0, 0, 0, 0, 0, 0, 0, 0, 0, 0, 0, 0, 0, 0, 0, 0, 0, 0, 0, 0, 0, 0, 0, 0, 0, 0, 0, 0, 0, 0, 0, 0, 0, 0, 0], [0, 0, 0, 0, 0, 0, 0, 0, 0, 0, 0, 0, 0, 0, 0, 0, 0, 0, 0, 0, 0, 0, 0, 0, 0, 0, 0, 0, 0, 0, 0, 0, 0, 0, 0, 0, 0, 0, 0, 0], [0, 0, 0, 0, 0, 0, 0, 0, 0, 0, 0, 0, 0, 0, 0, 0, 0, 0, 0, 0, 0, 0, 0, 0, 0, 0, 0, 0, 0, 0, 0, 0, 0, 0, 0, 0, 0, 0, 0, 0], [44, 38, 46, 42, 33, 47, 45, 41, 37, 33, 49, 37, 44, 47, 44, 47, 45, 33, 36, 48, 38, 42, 45, 33, 47, 35, 48, 46, 40, 49, 50, 31, 49, 30, 36, 30, 39, 36, 50, 31], [34, 33, 49, 43, 41, 40, 30, 45, 50, 34, 46, 31, 34, 42, 46, 49, 50, 49, 34, 33, 34, 43, 42, 43, 46, 47, 40, 45, 34, 48, 37, 46, 30, 38, 50, 35, 48, 43, 49, 32], [42, 30, 50, 36, 36, 40, 47, 43, 34, 46, 40, 37, 44, 50, 34, 37, 40, 33, 49, 47, 38, 44, 40, 46, 33, 49, 42, 50, 36, 31, 31, 42, 48, 36, 39, 38, 40, 33, 35, 37], [45, 30, 46, 46, 48, 41, 30, 38, 35, 35, 37, 31, 36, 43, 35, 44, 30, 42, 39, 31, 43, 35, 48, 50, 41, 37, 37, 36, 48, 31, 40, 44, 42, 36, 39, 45, 35, 40, 39, 38], [34, 45, 30, 42, 31, 47, 46, 39, 42, 43, 33, 38, 44, 49, 42, 46, 35, 47, 37, 39, 45, 44, 47, 47, 40, 43, 47, 47, 34, 34, 44, 32, 48, 33, 44, 50, 35, 37, 38, 48], [43, 36, 50, 30, 30, 43, 30, 41, 37, 33, 32, 46, 48, 31, 42, 34, 30, 47, 45, 49, 43, 34, 30, 46, 48, 39, 31, 39, 31, 42, 37, 32, 37, 37, 30, 45, 34, 36, 35, 45]], [[0, 0, 0, 0, 0, 0, 0, 0, 0, 0, 0, 0, 0, 0, 0, 0, 0, 0, 0, 0, 0, 0, 0, 0, 0, 0, 0, 0, 0, 0, 0, 0, 0, 0, 0, 0, 0, 0, 0, 0], [0, 0, 0, 0, 0, 0, 0, 0, 0, 0, 0, 0, 0, 0, 0, 0, 0, 0, 0, 0, 0, 0, 0, 0, 0, 0, 0, 0, 0, 0, 0, 0, 0, 0, 0, 0, 0, 0, 0, 0], [0, 0, 0, 0, 0, 0, 0, 0, 0, 0, 0, 0, 0, 0, 0, 0, 0, 0, 0, 0, 0, 0, 0, 0, 0, 0, 0, 0, 0, 0, 0, 0, 0, 0, 0, 0, 0, 0, 0, 0], [0, 0, 0, 0, 0, 0, 0, 0, 0, 0, 0, 0, 0, 0, 0, 0, 0, 0, 0, 0, 0, 0, 0, 0, 0, 0, 0, 0, 0, 0, 0, 0, 0, 0, 0, 0, 0, 0, 0, 0], [0, 0, 0, 0, 0, 0, 0, 0, 0, 0, 0, 0, 0, 0, 0, 0, 0, 0, 0, 0, 0, 0, 0, 0, 0, 0, 0, 0, 0, 0, 0, 0, 0, 0, 0, 0, 0, 0, 0, 0], [46, 41, 36, 30, 30, 34, 45, 48, 30, 40, 49, 38, 42, 41, 39, 46, 48, 31, 44, 34, 30, 42, 46, 50, 33, 30, 39, 49, 37, 36, 33, 33, 38, 35, 33, 45, 38, 42, 35, 41], [48, 49, 50, 49, 42, 31, 38, 35, 35, 37, 41, 48, 45, 34, 38, 47, 46, 49, 47, 34, 31, 36, 31, 34, 49, 43, 45, 37, 45, 31, 37, 31, 46, 37, 45, 36, 42, 44, 32, 49], [50, 32, 48, 44, 34, 40, 43, 34, 39, 42, 33, 35, 34, 39, 30, 34, 30, 30, 34, 40, 32, 47, 46, 37, 49, 35, 40, 47, 35, 39, 49, 34, 39, 45, 33, 47, 45, 49, 49, 44], [39, 39, 35, 33, 39, 46, 50, 42, 48, 35, 50, 50, 36, 45, 47, 45, 50, 49, 45, 36, 36, 42, 43, 42, 39, 36, 41, 42, 39, 48, 31, 31, 32, 38, 33, 39, 35, 39, 34, 36], [38, 38, 30, 49, 30, 31, 46, 45, 33, 31, 30, 31, 39, 37, 31, 32, 34, 34, 48, 41, 47, 46, 34, 49, 41, 42, 45, 39, 39, 33, 43, 37, 40, 40, 39, 40, 31, 36, 40, 42]], [[0, 0, 0, 0, 0, 0, 0, 0, 0, 0, 0, 0, 0, 0, 0, 0, 0, 0, 0, 0, 0, 0, 0, 0, 0, 0, 0, 0, 0, 0, 0, 0, 0, 0, 0, 0, 0, 0, 0, 0], [0, 0, 0, 0, 0, 0, 0, 0, 0, 0, 0, 0, 0, 0, 0, 0, 0, 0, 0, 0, 0, 0, 0, 0, 0, 0, 0, 0, 0, 0, 0, 0, 0, 0, 0, 0, 0, 0, 0, 0], [0, 0, 0, 0, 0, 0, 0, 0, 0, 0, 0, 0, 0, 0, 0, 0, 0, 0, 0, 0, 0, 0, 0, 0, 0, 0, 0, 0, 0, 0, 0, 0, 0, 0, 0, 0, 0, 0, 0, 0], [0, 0, 0, 0, 0, 0, 0, 0, 0, 0, 0, 0, 0, 0, 0, 0, 0, 0, 0, 0, 0, 0, 0, 0, 0, 0, 0, 0, 0, 0, 0, 0, 0, 0, 0, 0, 0, 0, 0, 0], [0, 0, 0, 0, 0, 0, 0, 0, 0, 0, 0, 0, 0, 0, 0, 0, 0, 0, 0, 0, 0, 0, 0, 0, 0, 0, 0, 0, 0, 0, 0, 0, 0, 0, 0, 0, 0, 0, 0, 0], [0, 0, 0, 0, 0, 0, 0, 0, 0, 0, 0, 0, 0, 0, 0, 0, 0, 0, 0, 0, 0, 0, 0, 0, 0, 0, 0, 0, 0, 0, 0, 0, 0, 0, 0, 0, 0, 0, 0, 0], [39, 34, 36, 42, 39, 38, 38, 50, 48, 40, 30, 48, 32, 47, 46, 38, 33, 43, 32, 43, 36, 45, 46, 36, 32, 48, 37, 31, 46, 43, 39, 35, 35, 46, 42, 37, 35, 34, 36, 45], [31, 34, 46, 49, 46, 39, 39, 45, 31, 32, 34, 31, 41, 37, 42, 30, 30, 43, 37, 49, 50, 41, 31, 35, 39, 30, 40, 44, 44, 49, 37, 31, 43, 41, 45, 39, 31, 48, 38, 34], [37, 47, 32, 31, 45, 50, 38, 38, 43, 44, 42, 31, 30, 37, 32, 50, 45, 40, 44, 36, 31, 41, 35, 31, 37, 40, 30, 30, 38, 31, 35, 39, 45, 50, 49, 41, 34, 42, 41, 35], [50, 41, 44, 33, 34, 50, 37, 46, 46, 43, 32, 39, 38, 35, 40, 42, 38, 42, 40, 49, 32, 36, 38, 37, 50, 30, 50, 45, 49, 44, 34, 33, 47, 31, 34, 50, 37, 39, 45, 44]], [[0, 0, 0, 0, 0, 0, 0, 0, 0, 0, 0, 0, 0, 0, 0, 0, 0, 0, 0, 0, 0, 0, 0, 0, 0, 0, 0, 0, 0, 0, 0, 0, 0, 0, 0, 0, 0, 0, 0, 0], [0, 0, 0, 0, 0, 0, 0, 0, 0, 0, 0, 0, 0, 0, 0, 0, 0, 0, 0, 0, 0, 0, 0, 0, 0, 0, 0, 0, 0, 0, 0, 0, 0, 0, 0, 0, 0, 0, 0, 0], [0, 0, 0, 0, 0, 0, 0, 0, 0, 0, 0, 0, 0, 0, 0, 0, 0, 0, 0, 0, 0, 0, 0, 0, 0, 0, 0, 0, 0, 0, 0, 0, 0, 0, 0, 0, 0, 0, 0, 0], [0, 0, 0, 0, 0, 0, 0, 0, 0, 0, 0, 0, 0, 0, 0, 0, 0, 0, 0, 0, 0, 0, 0, 0, 0, 0, 0, 0, 0, 0, 0, 0, 0, 0, 0, 0, 0, 0, 0, 0], [0, 0, 0, 0, 0, 0, 0, 0, 0, 0, 0, 0, 0, 0, 0, 0, 0, 0, 0, 0, 0, 0, 0, 0, 0, 0, 0, 0, 0, 0, 0, 0, 0, 0, 0, 0, 0, 0, 0, 0], [0, 0, 0, 0, 0, 0, 0, 0, 0, 0, 0, 0, 0, 0, 0, 0, 0, 0, 0, 0, 0, 0, 0, 0, 0, 0, 0, 0, 0, 0, 0, 0, 0, 0, 0, 0, 0, 0, 0, 0], [0, 0, 0, 0, 0, 0, 0, 0, 0, 0, 0, 0, 0, 0, 0, 0, 0, 0, 0, 0, 0, 0, 0, 0, 0, 0, 0, 0, 0, 0, 0, 0, 0, 0, 0, 0, 0, 0, 0, 0], [41, 40, 34, 49, 49, 48, 38, 45, 32, 31, 49, 47, 43, 36, 47, 44, 32, 40, 46, 32, 45, 46, 35, 30, 33, 40, 31, 44, 44, 36, 32, 32, 34, 46, 36, 41, 48, 35, 30, 43], [36, 34, 49, 43, 33, 45, 45, 33, 45, 31, 45, 35, 39, 43, 33, 34, 50, 42, 47, 38, 44, 49, 47, 44, 43, 40, 46, 33, 43, 38, 41, 46, 46, 35, 31, 40, 46, 39, 40, 34], [50, 30, 34, 33, 45, 50, 36, 37, 47, 39, 45, 34, 45, 31, 32, 45, 31, 46, 50, 30, 44, 40, 42, 46, 36, 34, 41, 36, 38, 49, 45, 33, 49, 33, 36, 40, 30, 41, 39, 49]], [[0, 0, 0, 0, 0, 0, 0, 0, 0, 0, 0, 0, 0, 0, 0, 0, 0, 0, 0, 0, 0, 0, 0, 0, 0, 0, 0, 0, 0, 0, 0, 0, 0, 0, 0, 0, 0, 0, 0, 0], [0, 0, 0, 0, 0, 0, 0, 0, 0, 0, 0, 0, 0, 0, 0, 0, 0, 0, 0, 0, 0, 0, 0, 0, 0, 0, 0, 0, 0, 0, 0, 0, 0, 0, 0, 0, 0, 0, 0, 0], [0, 0, 0, 0, 0, 0, 0, 0, 0, 0, 0, 0, 0, 0, 0, 0, 0, 0, 0, 0, 0, 0, 0, 0, 0, 0, 0, 0, 0, 0, 0, 0, 0, 0, 0, 0, 0, 0, 0, 0], [0, 0, 0, 0, 0, 0, 0, 0, 0, 0, 0, 0, 0, 0, 0, 0, 0, 0, 0, 0, 0, 0, 0, 0, 0, 0, 0, 0, 0, 0, 0, 0, 0, 0, 0, 0, 0, 0, 0, 0], [0, 0, 0, 0, 0, 0, 0, 0, 0, 0, 0, 0, 0, 0, 0, 0, 0, 0, 0, 0, 0, 0, 0, 0, 0, 0, 0, 0, 0, 0, 0, 0, 0, 0, 0, 0, 0, 0, 0, 0], [0, 0, 0, 0, 0, 0, 0, 0, 0, 0, 0, 0, 0, 0, 0, 0, 0, 0, 0, 0, 0, 0, 0, 0, 0, 0, 0, 0, 0, 0, 0, 0, 0, 0, 0, 0, 0, 0, 0, 0], [0, 0, 0, 0, 0, 0, 0, 0, 0, 0, 0, 0, 0, 0, 0, 0, 0, 0, 0, 0, 0, 0, 0, 0, 0, 0, 0, 0, 0, 0, 0, 0, 0, 0, 0, 0, 0, 0, 0, 0], [0, 0, 0, 0, 0, 0, 0, 0, 0, 0, 0, 0, 0, 0, 0, 0, 0, 0, 0, 0, 0, 0, 0, 0, 0, 0, 0, 0, 0, 0, 0, 0, 0, 0, 0, 0, 0, 0, 0, 0], [37, 49, 36, 39, 33, 47, 50, 47, 42, 48, 48, 39, 49, 35, 50, 41, 37, 41, 33, 38, 50, 47, 34, 31, 47, 31, 36, 41, 45, 37, 47, 41, 39, 42, 46, 37, 30, 33, 47, 36], [42, 50, 43, 42, 47, 43, 45, 44, 49, 47, 36, 37, 33, 38, 35, 49, 34, 48, 33, 41, 46, 45, 48, 34, 43, 42, 38, 46, 37, 46, 35, 38, 41, 44, 44, 44, 36, 49, 34, 30]], [[0, 0, 0, 0, 0, 0, 0, 0, 0, 0, 0, 0, 0, 0, 0, 0, 0, 0, 0, 0, 0, 0, 0, 0, 0, 0, 0, 0, 0, 0, 0, 0, 0, 0, 0, 0, 0, 0, 0, 0], [0, 0, 0, 0, 0, 0, 0, 0, 0, 0, 0, 0, 0, 0, 0, 0, 0, 0, 0, 0, 0, 0, 0, 0, 0, 0, 0, 0, 0, 0, 0, 0, 0, 0, 0, 0, 0, 0, 0, 0], [0, 0, 0, 0, 0, 0, 0, 0, 0, 0, 0, 0, 0, 0, 0, 0, 0, 0, 0, 0, 0, 0, 0, 0, 0, 0, 0, 0, 0, 0, 0, 0, 0, 0, 0, 0, 0, 0, 0, 0], [0, 0, 0, 0, 0, 0, 0, 0, 0, 0, 0, 0, 0, 0, 0, 0, 0, 0, 0, 0, 0, 0, 0, 0, 0, 0, 0, 0, 0, 0, 0, 0, 0, 0, 0, 0, 0, 0, 0, 0], [0, 0, 0, 0, 0, 0, 0, 0, 0, 0, 0, 0, 0, 0, 0, 0, 0, 0, 0, 0, 0, 0, 0, 0, 0, 0, 0, 0, 0, 0, 0, 0, 0, 0, 0, 0, 0, 0, 0, 0], [0, 0, 0, 0, 0, 0, 0, 0, 0, 0, 0, 0, 0, 0, 0, 0, 0, 0, 0, 0, 0, 0, 0, 0, 0, 0, 0, 0, 0, 0, 0, 0, 0, 0, 0, 0, 0, 0, 0, 0], [0, 0, 0, 0, 0, 0, 0, 0, 0, 0, 0, 0, 0, 0, 0, 0, 0, 0, 0, 0, 0, 0, 0, 0, 0, 0, 0, 0, 0, 0, 0, 0, 0, 0, 0, 0, 0, 0, 0, 0], [0, 0, 0, 0, 0, 0, 0, 0, 0, 0, 0, 0, 0, 0, 0, 0, 0, 0, 0, 0, 0, 0, 0, 0, 0, 0, 0, 0, 0, 0, 0, 0, 0, 0, 0, 0, 0, 0, 0, 0], [0, 0, 0, 0, 0, 0, 0, 0, 0, 0, 0, 0, 0, 0, 0, 0, 0, 0, 0, 0, 0, 0, 0, 0, 0, 0, 0, 0, 0, 0, 0, 0, 0, 0, 0, 0, 0, 0, 0, 0], [49, 50, 47, 39, 36, 44, 40, 50, 45, 31, 48, 36, 38, 33, 30, 39, 37, 31, 40, 33, 31, 49, 49, 48, 35, 46, 44, 36, 36, 40, 46, 39, 37, 33, 45, 36, 48, 34, 30, 47]], [[0, 0, 0, 0, 0, 0, 0, 0, 0, 0, 0, 0, 0, 0, 0, 0, 0, 0, 0, 0, 0, 0, 0, 0, 0, 0, 0, 0, 0, 0, 0, 0, 0, 0, 0, 0, 0, 0, 0, 0], [0, 0, 0, 0, 0, 0, 0, 0, 0, 0, 0, 0, 0, 0, 0, 0, 0, 0, 0, 0, 0, 0, 0, 0, 0, 0, 0, 0, 0, 0, 0, 0, 0, 0, 0, 0, 0, 0, 0, 0], [0, 0, 0, 0, 0, 0, 0, 0, 0, 0, 0, 0, 0, 0, 0, 0, 0, 0, 0, 0, 0, 0, 0, 0, 0, 0, 0, 0, 0, 0, 0, 0, 0, 0, 0, 0, 0, 0, 0, 0], [0, 0, 0, 0, 0, 0, 0, 0, 0, 0, 0, 0, 0, 0, 0, 0, 0, 0, 0, 0, 0, 0, 0, 0, 0, 0, 0, 0, 0, 0, 0, 0, 0, 0, 0, 0, 0, 0, 0, 0], [0, 0, 0, 0, 0, 0, 0, 0, 0, 0, 0, 0, 0, 0, 0, 0, 0, 0, 0, 0, 0, 0, 0, 0, 0, 0, 0, 0, 0, 0, 0, 0, 0, 0, 0, 0, 0, 0, 0, 0], [0, 0, 0, 0, 0, 0, 0, 0, 0, 0, 0, 0, 0, 0, 0, 0, 0, 0, 0, 0, 0, 0, 0, 0, 0, 0, 0, 0, 0, 0, 0, 0, 0, 0, 0, 0, 0, 0, 0, 0], [0, 0, 0, 0, 0, 0, 0, 0, 0, 0, 0, 0, 0, 0, 0, 0, 0, 0, 0, 0, 0, 0, 0, 0, 0, 0, 0, 0, 0, 0, 0, 0, 0, 0, 0, 0, 0, 0, 0, 0], [0, 0, 0, 0, 0, 0, 0, 0, 0, 0, 0, 0, 0, 0, 0, 0, 0, 0, 0, 0, 0, 0, 0, 0, 0, 0, 0, 0, 0, 0, 0, 0, 0, 0, 0, 0, 0, 0, 0, 0], [0, 0, 0, 0, 0, 0, 0, 0, 0, 0, 0, 0, 0, 0, 0, 0, 0, 0, 0, 0, 0, 0, 0, 0, 0, 0, 0, 0, 0, 0, 0, 0, 0, 0, 0, 0, 0, 0, 0, 0], [0, 0, 0, 0, 0, 0, 0, 0, 0, 0, 0, 0, 0, 0, 0, 0, 0, 0, 0, 0, 0, 0, 0, 0, 0, 0, 0, 0, 0, 0, 0, 0, 0, 0, 0, 0, 0, 0, 0, 0]]];

q = [[[19, 112], [8, 116], [16, 115], [19, 118], [11, 113], [25, 125], [20, 120], [5, 125], [23, 118], [11, 106], [20, 121], [8, 106], [18, 116], [5, 105], [12, 107], [13, 117], [12, 125], [6, 109], [11, 111], [8, 115], [8, 118], [23, 106], [17, 113], [9, 115], [18, 120], [5, 105], [6, 120], [23, 114], [9, 116], [24, 112], [24, 124], [19, 119], [23, 117], [13, 109], [10, 113], [5, 114], [11, 109], [24, 124], [10, 122], [22, 108]], [[9, 116], [22, 124], [15, 107], [17, 121], [7, 123], [24, 105], [19, 117], [19, 109], [11, 112], [6, 117], [17, 109], [18, 111], [9, 119], [23, 121], [14, 123], [20, 108], [7, 106], [17, 108], [23, 112], [7, 105], [15, 121], [8, 120], [16, 123], [16, 121], [9, 116], [25, 114], [6, 123], [5, 124], [5, 111], [25, 111], [7, 105], [18, 123], [5, 111], [18, 106], [6, 121], [10, 109], [8, 116], [10, 117], [16, 109], [18, 116]], [[20, 114], [22, 120], [15, 113], [23, 111], [25, 109], [25, 117], [6, 123], [5, 124], [14, 124], [23, 111], [11, 106], [5, 119], [20, 123], [6, 113], [5, 114], [7, 123], [8, 124], [9, 112], [17, 120], [6, 117], [8, 122], [13, 121], [22, 114], [19, 114], [5, 112], [18, 118], [13, 109], [20, 124], [16, 114], [12, 118], [23, 115], [25, 113], [11, 121], [19, 112], [8, 110], [21, 108], [9, 111], [22, 110], [8, 111], [22, 122]], [[6, 108], [7, 122], [15, 106], [8, 125], [11, 119], [16, 113], [17, 106], [14, 118], [7, 112], [8, 105], [20, 110], [14, 113], [23, 119], [13, 125], [11, 105], [25, 121], [5, 105], [25, 107], [18, 122], [5, 116], [8, 120], [20, 122], [9, 122], [9, 105], [25, 108], [23, 119], [6, 110], [15, 107], [20, 105], [24, 117], [7, 107], [19, 120], [7, 109], [6, 110], [7, 120], [12, 114], [5, 116], [10, 114], [17, 116], [12, 106]], [[25, 108], [12, 125], [10, 107], [20, 115], [12, 122], [24, 105], [20, 110], [14, 119], [21, 109], [5, 110], [20, 125], [9, 109], [12, 119], [13, 107], [22, 119], [23, 110], [14, 112], [14, 110], [14, 108], [25, 117], [21, 115], [5, 117], [8, 123], [11, 124], [19, 125], [14, 106], [17, 110], [15, 113], [25, 113], [13, 118], [14, 123], [16, 119], [21, 107], [8, 114], [6, 114], [19, 111], [7, 123], [6, 125], [22, 105], [20, 113]], [[10, 119], [16, 120], [19, 117], [14, 119], [9, 119], [18, 119], [15, 113], [10, 117], [19, 112], [6, 115], [10, 106], [11, 118], [7, 105], [23, 124], [24, 107], [14, 120], [12, 111], [5, 112], [25, 123], [16, 105], [13, 108], [8, 106], [13, 109], [25, 122], [9, 116], [24, 114], [15, 113], [6, 113], [11, 118], [24, 119], [14, 125], [9, 113], [24, 116], [6, 111], [18, 119], [21, 119], [20, 123], [21, 119], [10, 107], [10, 115]], [[6, 116], [8, 119], [20, 122], [24, 124], [9, 113], [24, 109], [24, 111], [10, 114], [21, 110], [20, 117], [12, 120], [11, 118], [8, 115], [24, 116], [5, 119], [8, 105], [10, 117], [25, 109], [5, 124], [6, 124], [9, 124], [8, 121], [20, 105], [16, 125], [14, 122], [7, 125], [25, 123], [11, 119], [10, 107], [24, 106], [17, 116], [23, 122], [13, 107], [16, 106], [9, 117], [8, 122], [5, 121], [15, 118], [21, 119], [23, 121]], [[12, 112], [5, 105], [20, 112], [13, 110], [21, 121], [15, 105], [11, 120], [15, 106], [22, 105], [20, 116], [13, 119], [8, 105], [18, 109], [20, 124], [5, 121], [20, 110], [14, 114], [12, 122], [22, 115], [15, 116], [19, 120], [7, 122], [22, 115], [16, 112], [15, 115], [15, 123], [23, 116], [19, 124], [20, 121], [16, 117], [10, 108], [20, 108], [20, 113], [11, 115], [14, 106], [15, 116], [12, 122], [22, 125], [20, 122], [22, 112]], [[22, 116], [24, 111], [10, 112], [12, 110], [19, 121], [20, 108], [14, 121], [16, 105], [10, 114], [11, 122], [9, 118], [15, 124], [17, 116], [25, 106], [5, 109], [14, 115], [21, 118], [24, 120], [24, 120], [19, 124], [15, 113], [10, 125], [24, 118], [9, 119], [14, 106], [24, 115], [15, 109], [16, 125], [19, 115], [14, 120], [14, 105], [22, 113], [13, 122], [17, 121], [10, 108], [11, 111], [6, 113], [16, 125], [12, 125], [9, 114]], [[7, 110], [8, 115], [12, 122], [24, 125], [12, 111], [14, 107], [7, 122], [11, 110], [19, 113], [15, 122], [20, 124], [21, 119], [7, 125], [5, 110], [11, 109], [11, 125], [6, 119], [16, 122], [25, 107], [14, 113], [23, 125], [13, 109], [9, 105], [11, 117], [15, 111], [9, 110], [25, 125], [14, 105], [25, 107], [24, 125], [25, 125], [10, 110], [19, 106], [14, 125], [25, 109], [18, 108], [21, 107], [21, 120], [9, 115], [21, 105]]];
Q = [[45, 368], [44, 368], [46, 371], [42, 364], [49, 367], [46, 369], [45, 374], [51, 368], [49, 371], [49, 368]];
